50
17601

243 230
53 481
119 833
447 364
152 482
321 366
561 883
988 588
324 683
273 386
592 664
388 177
191 864
656 405
61 494
828 618
544 796
154 783
418 970
406 24
271 802
441 373
57 472
341 892
958 597
649 303
658 611
916 613
916 686
965 988
30 33
848 744
51 564
565 256
932 432
433 790
818 737
456 6
777 261
579 393
971 441
462 465
13 771
800 745
269 3
162 39
975 868
223 153
179 636
768 464
